data;
param nombreJob := 7;
param nombreRessource := 3;
param duree := 1 8 2 8 3 8 4 7 5 3 6 2 7 10;
param capaciteRessource := 1 4 2 13 3 14;
param besoinRessource : 1 2 3 :=
                    1   2 8 3
                    2   3 6 6
                    3   3 4 2
                    4   2 4 7
                    5   4 4 10
                    6   1 3 2
                    7   3 8 9;
end;

